Function: get_partitions took 2.0265579223632812e-05 seconds
Function: map_flows_partitions took 4.0531158447265625e-06 seconds
Building model with:
2 devices, 3 partitions and 1 flows
Using license file /home/anup/gurobi.lic
Academic license - for non-commercial use only
Function: MIP.add_frac_mem_var took 0.00023317337036132812 seconds
Function: MIP.add_coverage_constraints took 0.0002028942108154297 seconds
Function: MIP.add_accuracy_constraints took 0.00015020370483398438 seconds
Function: MIP.add_capacity_constraints took 0.00027441978454589844 seconds
Changed value of parameter TimeLimit to 120.0
   Prev: inf  Min: 0.0  Max: inf  Default: inf
--------------------------------------------------
Starting model update
Model update took: 5.078315734863281e-05 s
--------------------------------------------------
Starting model optimize
Gurobi Optimizer version 9.0.0 build v9.0.0rc2 (linux64)
Optimize a model with 14 rows, 19 columns and 37 nonzeros
Model fingerprint: 0x4217619a
Model has 2 general constraints
Variable types: 19 continuous, 0 integer (0 binary)
Coefficient statistics:
  Matrix range     [1e+00, 5e+03]
  Objective range  [1e+00, 1e+00]
  Bounds range     [1e+00, 3e+04]
  RHS range        [1e+00, 1e+00]

---------------------------------------------------------------------------
Multi-objectives: starting optimization with 4 objectives ... 
---------------------------------------------------------------------------

Multi-objectives: applying initial presolve ...
---------------------------------------------------------------------------

Presolve removed 11 rows and 13 columns
Presolve time: 0.00s
Presolved: 3 rows and 6 columns
---------------------------------------------------------------------------

Multi-objectives: optimize objective 1 (tot_mem_CPU) ...
---------------------------------------------------------------------------

Presolve removed 3 rows and 6 columns
Presolve time: 0.00s
Presolve: All rows and columns removed
Iteration    Objective       Primal Inf.    Dual Inf.      Time
       0    4.6227422e+03   0.000000e+00   0.000000e+00      0s

Solved in 0 iterations and 0.00 seconds
Optimal objective  4.622742188e+03
---------------------------------------------------------------------------

Multi-objectives: optimize objective 2 (CPU_mem_load) ...
---------------------------------------------------------------------------

Presolve removed 4 rows and 6 columns
Presolve time: 0.00s
Presolve: All rows and columns removed
Iteration    Objective       Primal Inf.    Dual Inf.      Time
       0    4.6227422e+03   0.000000e+00   0.000000e+00      0s

Solved in 0 iterations and 0.00 seconds
Optimal objective  4.622742188e+03
---------------------------------------------------------------------------

Multi-objectives: optimize objective 3 (tot_mem_P4) ...
---------------------------------------------------------------------------

Presolve removed 5 rows and 6 columns
Presolve time: 0.00s
Presolve: All rows and columns removed
Iteration    Objective       Primal Inf.    Dual Inf.      Time
       0    5.7553772e+02   0.000000e+00   0.000000e+00      0s

Solved in 0 iterations and 0.00 seconds
Optimal objective  5.755377248e+02
---------------------------------------------------------------------------

Multi-objectives: optimize objective 4 (P4_mem_load) ...
---------------------------------------------------------------------------

Presolve removed 6 rows and 6 columns
Presolve time: 0.00s
Presolve: All rows and columns removed
Iteration    Objective       Primal Inf.    Dual Inf.      Time
       0    5.7553772e+02   0.000000e+00   0.000000e+00      0s

Solved in 0 iterations and 0.00 seconds
Optimal objective  5.755377248e+02

---------------------------------------------------------------------------
Multi-objectives: solved in 0.00 seconds, solution count 2

Model optimize took: 0.001619577407836914 seconds
--------------------------------------------------

Solution quality statistics for model UnivmonGreedy :
  Maximum violation:
    Bound       : 0.00000000e+00
    Constraint  : 1.11022302e-16 (cov_0_0)
    Integrality : 0.00000000e+00

Sketch (0) (cm: eps0: 6.25e-06, del0: 0.05, min_mem: 1698.9296875)
Par: 1, Rows: 3
(0.897,0)    (0.103,1)    
Total frac: 1.000

Sketch (1) (cm: eps0: 0.000625, del0: 0.05, min_mem: 16.9921875)
Par: 1, Rows: 3
(1.000,0)    (0.000,1)    
Total frac: 1.000

Sketch (2) (cm: eps0: 0.000625, del0: 0.05, min_mem: 16.9921875)
Par: 1, Rows: 3
(1.000,1)    (0.000,0)    
Total frac: 1.000

Device (0) CPU_1:
Rows total: 5.691240216625357
Mem total: 4623.204462718751

Device (1) P4_1:
Rows total: 3.3087597833746423
Mem total: 575.5377247812489
--------------------------------------------------
Changed value of parameter NonConvex to 2
   Prev: -1  Min: -1  Max: 2  Default: -1

Throughput: 70.0 Mpps, ns per packet: 14.285714285714286
Resources: 83.38191522563514
Used Cores: 7.0, Total CPUS: 1, Switch Memory: 575.5377247812489

Sketch (0) (cm: eps0: 6.25e-06, del0: 0.05, min_mem: 1698.9296875)
Par: 1, Rows: 3
(0.897,0)    (0.103,1)    
Total frac: 1.000

Sketch (1) (cm: eps0: 0.000625, del0: 0.05, min_mem: 16.9921875)
Par: 1, Rows: 3
(1.000,0)    (0.000,1)    
Total frac: 1.000

Sketch (2) (cm: eps0: 0.000625, del0: 0.05, min_mem: 16.9921875)
Par: 1, Rows: 3
(1.000,1)    (0.000,0)    
Total frac: 1.000

Device (0) CPU_1:
cores_sketch: 4.0, cores_dpdk: 2.9999999999999996
Rows total: 5.691240216625357
Mem total: 4623.204462718751
Throughput: 70.0

Device (1) P4_1:
Rows total: 3.3087597833746423
Mem total: 575.5377247812489
Throughput: 148.0
--------------------------------------------------
Function: MIP.solve took 0.016028881072998047 seconds
Function: solve took 0.016303300857543945 seconds
